language Essence 1.3

letting costTC be
        function((1, 1) --> 1, (1, 2) --> 5, (1, 3) --> 3, (1, 4) --> 3, (2, 1) --> 1, (2, 2) --> 5, (2, 3) --> 3,
                 (2, 4) --> 2, (3, 1) --> 5, (3, 2) --> 2, (3, 3) --> 5, (3, 4) --> 2, (4, 1) --> 4, (4, 2) --> 3,
                 (4, 3) --> 3, (4, 4) --> 4, (5, 1) --> 3, (5, 2) --> 4, (5, 3) --> 3, (5, 4) --> 2, (6, 1) --> 3,
                 (6, 2) --> 3, (6, 3) --> 4, (6, 4) --> 4, (7, 1) --> 2, (7, 2) --> 3, (7, 3) --> 4, (7, 4) --> 1,
                 (8, 1) --> 4, (8, 2) --> 2, (8, 3) --> 5, (8, 4) --> 2, (9, 1) --> 1, (9, 2) --> 3, (9, 3) --> 5,
                 (9, 4) --> 5, (10, 1) --> 3, (10, 2) --> 5, (10, 3) --> 2, (10, 4) --> 4, (11, 1) --> 5, (11, 2) --> 2,
                 (11, 3) --> 2, (11, 4) --> 2, (12, 1) --> 4, (12, 2) --> 3, (12, 3) --> 2, (12, 4) --> 4,
                 (13, 1) --> 3, (13, 2) --> 1, (13, 3) --> 3, (13, 4) --> 1, (14, 1) --> 2, (14, 2) --> 1,
                 (14, 3) --> 1, (14, 4) --> 2, (15, 1) --> 5, (15, 2) --> 4, (15, 3) --> 3, (15, 4) --> 3,
                 (16, 1) --> 4, (16, 2) --> 2, (16, 3) --> 2, (16, 4) --> 3, (17, 1) --> 5, (17, 2) --> 2,
                 (17, 3) --> 1, (17, 4) --> 4, (18, 1) --> 5, (18, 2) --> 2, (18, 3) --> 2, (18, 4) --> 3,
                 (19, 1) --> 5, (19, 2) --> 2, (19, 3) --> 2, (19, 4) --> 2, (20, 1) --> 3, (20, 2) --> 5,
                 (20, 3) --> 3, (20, 4) --> 5, (21, 1) --> 1, (21, 2) --> 2, (21, 3) --> 1, (21, 4) --> 3,
                 (22, 1) --> 1, (22, 2) --> 2, (22, 3) --> 4, (22, 4) --> 5, (23, 1) --> 4, (23, 2) --> 4,
                 (23, 3) --> 3, (23, 4) --> 2, (24, 1) --> 5, (24, 2) --> 5, (24, 3) --> 4, (24, 4) --> 4)
letting costWT be
        function((1, 1) --> 3, (1, 2) --> 4, (1, 3) --> 2, (1, 4) --> 4, (1, 5) --> 2, (1, 6) --> 4, (1, 7) --> 3,
                 (1, 8) --> 3, (1, 9) --> 3, (1, 10) --> 3, (1, 11) --> 4, (1, 12) --> 3, (1, 13) --> 3, (1, 14) --> 4,
                 (1, 15) --> 3, (1, 16) --> 2, (1, 17) --> 2, (1, 18) --> 4, (1, 19) --> 4, (1, 20) --> 2,
                 (1, 21) --> 2, (1, 22) --> 3, (1, 23) --> 2, (1, 24) --> 2, (2, 1) --> 3, (2, 2) --> 2, (2, 3) --> 2,
                 (2, 4) --> 4, (2, 5) --> 4, (2, 6) --> 2, (2, 7) --> 2, (2, 8) --> 2, (2, 9) --> 4, (2, 10) --> 4,
                 (2, 11) --> 3, (2, 12) --> 2, (2, 13) --> 2, (2, 14) --> 2, (2, 15) --> 3, (2, 16) --> 3,
                 (2, 17) --> 2, (2, 18) --> 4, (2, 19) --> 4, (2, 20) --> 4, (2, 21) --> 4, (2, 22) --> 2,
                 (2, 23) --> 2, (2, 24) --> 2, (3, 1) --> 2, (3, 2) --> 2, (3, 3) --> 4, (3, 4) --> 4, (3, 5) --> 4,
                 (3, 6) --> 2, (3, 7) --> 2, (3, 8) --> 3, (3, 9) --> 2, (3, 10) --> 4, (3, 11) --> 4, (3, 12) --> 2,
                 (3, 13) --> 2, (3, 14) --> 3, (3, 15) --> 2, (3, 16) --> 3, (3, 17) --> 3, (3, 18) --> 2,
                 (3, 19) --> 2, (3, 20) --> 3, (3, 21) --> 2, (3, 22) --> 4, (3, 23) --> 2, (3, 24) --> 4, (4, 1) --> 3,
                 (4, 2) --> 3, (4, 3) --> 4, (4, 4) --> 2, (4, 5) --> 3, (4, 6) --> 2, (4, 7) --> 3, (4, 8) --> 3,
                 (4, 9) --> 4, (4, 10) --> 2, (4, 11) --> 2, (4, 12) --> 2, (4, 13) --> 3, (4, 14) --> 4, (4, 15) --> 2,
                 (4, 16) --> 4, (4, 17) --> 4, (4, 18) --> 4, (4, 19) --> 4, (4, 20) --> 2, (4, 21) --> 4,
                 (4, 22) --> 2, (4, 23) --> 3, (4, 24) --> 3, (5, 1) --> 3, (5, 2) --> 3, (5, 3) --> 3, (5, 4) --> 3,
                 (5, 5) --> 4, (5, 6) --> 4, (5, 7) --> 4, (5, 8) --> 2, (5, 9) --> 3, (5, 10) --> 2, (5, 11) --> 2,
                 (5, 12) --> 3, (5, 13) --> 2, (5, 14) --> 2, (5, 15) --> 3, (5, 16) --> 4, (5, 17) --> 4,
                 (5, 18) --> 4, (5, 19) --> 3, (5, 20) --> 4, (5, 21) --> 4, (5, 22) --> 2, (5, 23) --> 3,
                 (5, 24) --> 4, (6, 1) --> 3, (6, 2) --> 4, (6, 3) --> 3, (6, 4) --> 4, (6, 5) --> 3, (6, 6) --> 3,
                 (6, 7) --> 3, (6, 8) --> 3, (6, 9) --> 3, (6, 10) --> 4, (6, 11) --> 4, (6, 12) --> 4, (6, 13) --> 2,
                 (6, 14) --> 4, (6, 15) --> 3, (6, 16) --> 4, (6, 17) --> 3, (6, 18) --> 2, (6, 19) --> 4,
                 (6, 20) --> 4, (6, 21) --> 4, (6, 22) --> 3, (6, 23) --> 3, (6, 24) --> 2, (7, 1) --> 2, (7, 2) --> 4,
                 (7, 3) --> 3, (7, 4) --> 3, (7, 5) --> 3, (7, 6) --> 2, (7, 7) --> 2, (7, 8) --> 3, (7, 9) --> 3,
                 (7, 10) --> 2, (7, 11) --> 3, (7, 12) --> 2, (7, 13) --> 2, (7, 14) --> 3, (7, 15) --> 3,
                 (7, 16) --> 3, (7, 17) --> 4, (7, 18) --> 2, (7, 19) --> 4, (7, 20) --> 2, (7, 21) --> 2,
                 (7, 22) --> 3, (7, 23) --> 2, (7, 24) --> 2, (8, 1) --> 3, (8, 2) --> 3, (8, 3) --> 3, (8, 4) --> 2,
                 (8, 5) --> 2, (8, 6) --> 4, (8, 7) --> 3, (8, 8) --> 3, (8, 9) --> 2, (8, 10) --> 4, (8, 11) --> 2,
                 (8, 12) --> 2, (8, 13) --> 2, (8, 14) --> 3, (8, 15) --> 2, (8, 16) --> 3, (8, 17) --> 4,
                 (8, 18) --> 3, (8, 19) --> 4, (8, 20) --> 4, (8, 21) --> 2, (8, 22) --> 2, (8, 23) --> 4,
                 (8, 24) --> 3, (9, 1) --> 4, (9, 2) --> 4, (9, 3) --> 3, (9, 4) --> 2, (9, 5) --> 2, (9, 6) --> 4,
                 (9, 7) --> 2, (9, 8) --> 4, (9, 9) --> 3, (9, 10) --> 4, (9, 11) --> 4, (9, 12) --> 4, (9, 13) --> 4,
                 (9, 14) --> 3, (9, 15) --> 4, (9, 16) --> 4, (9, 17) --> 2, (9, 18) --> 3, (9, 19) --> 4,
                 (9, 20) --> 2, (9, 21) --> 4, (9, 22) --> 3, (9, 23) --> 2, (9, 24) --> 4, (10, 1) --> 4,
                 (10, 2) --> 3, (10, 3) --> 3, (10, 4) --> 2, (10, 5) --> 2, (10, 6) --> 3, (10, 7) --> 3,
                 (10, 8) --> 2, (10, 9) --> 4, (10, 10) --> 4, (10, 11) --> 2, (10, 12) --> 4, (10, 13) --> 2,
                 (10, 14) --> 2, (10, 15) --> 4, (10, 16) --> 2, (10, 17) --> 2, (10, 18) --> 3, (10, 19) --> 3,
                 (10, 20) --> 4, (10, 21) --> 2, (10, 22) --> 3, (10, 23) --> 4, (10, 24) --> 2, (11, 1) --> 3,
                 (11, 2) --> 4, (11, 3) --> 2, (11, 4) --> 3, (11, 5) --> 3, (11, 6) --> 2, (11, 7) --> 2,
                 (11, 8) --> 4, (11, 9) --> 2, (11, 10) --> 4, (11, 11) --> 4, (11, 12) --> 4, (11, 13) --> 2,
                 (11, 14) --> 2, (11, 15) --> 4, (11, 16) --> 4, (11, 17) --> 3, (11, 18) --> 3, (11, 19) --> 3,
                 (11, 20) --> 2, (11, 21) --> 3, (11, 22) --> 3, (11, 23) --> 2, (11, 24) --> 3, (12, 1) --> 3,
                 (12, 2) --> 2, (12, 3) --> 3, (12, 4) --> 4, (12, 5) --> 3, (12, 6) --> 2, (12, 7) --> 4,
                 (12, 8) --> 2, (12, 9) --> 3, (12, 10) --> 3, (12, 11) --> 4, (12, 12) --> 2, (12, 13) --> 4,
                 (12, 14) --> 4, (12, 15) --> 2, (12, 16) --> 4, (12, 17) --> 2, (12, 18) --> 4, (12, 19) --> 3,
                 (12, 20) --> 3, (12, 21) --> 4, (12, 22) --> 3, (12, 23) --> 4, (12, 24) --> 4, (13, 1) --> 2,
                 (13, 2) --> 2, (13, 3) --> 4, (13, 4) --> 3, (13, 5) --> 3, (13, 6) --> 3, (13, 7) --> 4,
                 (13, 8) --> 4, (13, 9) --> 4, (13, 10) --> 3, (13, 11) --> 4, (13, 12) --> 3, (13, 13) --> 3,
                 (13, 14) --> 2, (13, 15) --> 3, (13, 16) --> 2, (13, 17) --> 4, (13, 18) --> 2, (13, 19) --> 3,
                 (13, 20) --> 4, (13, 21) --> 4, (13, 22) --> 4, (13, 23) --> 4, (13, 24) --> 2, (14, 1) --> 2,
                 (14, 2) --> 2, (14, 3) --> 3, (14, 4) --> 4, (14, 5) --> 3, (14, 6) --> 4, (14, 7) --> 2,
                 (14, 8) --> 3, (14, 9) --> 4, (14, 10) --> 4, (14, 11) --> 2, (14, 12) --> 4, (14, 13) --> 2,
                 (14, 14) --> 2, (14, 15) --> 3, (14, 16) --> 3, (14, 17) --> 4, (14, 18) --> 2, (14, 19) --> 3,
                 (14, 20) --> 3, (14, 21) --> 2, (14, 22) --> 3, (14, 23) --> 2, (14, 24) --> 4, (15, 1) --> 3,
                 (15, 2) --> 3, (15, 3) --> 2, (15, 4) --> 4, (15, 5) --> 3, (15, 6) --> 3, (15, 7) --> 3,
                 (15, 8) --> 3, (15, 9) --> 4, (15, 10) --> 4, (15, 11) --> 4, (15, 12) --> 2, (15, 13) --> 3,
                 (15, 14) --> 2, (15, 15) --> 2, (15, 16) --> 3, (15, 17) --> 3, (15, 18) --> 3, (15, 19) --> 2,
                 (15, 20) --> 4, (15, 21) --> 2, (15, 22) --> 2, (15, 23) --> 3, (15, 24) --> 3, (16, 1) --> 4,
                 (16, 2) --> 3, (16, 3) --> 4, (16, 4) --> 2, (16, 5) --> 2, (16, 6) --> 3, (16, 7) --> 4,
                 (16, 8) --> 4, (16, 9) --> 2, (16, 10) --> 2, (16, 11) --> 3, (16, 12) --> 2, (16, 13) --> 2,
                 (16, 14) --> 2, (16, 15) --> 3, (16, 16) --> 3, (16, 17) --> 3, (16, 18) --> 3, (16, 19) --> 4,
                 (16, 20) --> 4, (16, 21) --> 2, (16, 22) --> 2, (16, 23) --> 4, (16, 24) --> 2, (17, 1) --> 3,
                 (17, 2) --> 4, (17, 3) --> 3, (17, 4) --> 3, (17, 5) --> 3, (17, 6) --> 4, (17, 7) --> 4,
                 (17, 8) --> 3, (17, 9) --> 4, (17, 10) --> 2, (17, 11) --> 3, (17, 12) --> 4, (17, 13) --> 3,
                 (17, 14) --> 3, (17, 15) --> 3, (17, 16) --> 4, (17, 17) --> 3, (17, 18) --> 4, (17, 19) --> 2,
                 (17, 20) --> 2, (17, 21) --> 3, (17, 22) --> 3, (17, 23) --> 3, (17, 24) --> 4, (18, 1) --> 4,
                 (18, 2) --> 3, (18, 3) --> 3, (18, 4) --> 3, (18, 5) --> 3, (18, 6) --> 4, (18, 7) --> 2,
                 (18, 8) --> 2, (18, 9) --> 3, (18, 10) --> 2, (18, 11) --> 4, (18, 12) --> 4, (18, 13) --> 4,
                 (18, 14) --> 4, (18, 15) --> 4, (18, 16) --> 3, (18, 17) --> 2, (18, 18) --> 4, (18, 19) --> 4,
                 (18, 20) --> 2, (18, 21) --> 3, (18, 22) --> 4, (18, 23) --> 4, (18, 24) --> 4, (19, 1) --> 4,
                 (19, 2) --> 3, (19, 3) --> 3, (19, 4) --> 3, (19, 5) --> 2, (19, 6) --> 2, (19, 7) --> 2,
                 (19, 8) --> 3, (19, 9) --> 3, (19, 10) --> 3, (19, 11) --> 2, (19, 12) --> 4, (19, 13) --> 4,
                 (19, 14) --> 4, (19, 15) --> 3, (19, 16) --> 3, (19, 17) --> 3, (19, 18) --> 4, (19, 19) --> 2,
                 (19, 20) --> 2, (19, 21) --> 3, (19, 22) --> 4, (19, 23) --> 3, (19, 24) --> 3, (20, 1) --> 4,
                 (20, 2) --> 4, (20, 3) --> 2, (20, 4) --> 2, (20, 5) --> 4, (20, 6) --> 3, (20, 7) --> 3,
                 (20, 8) --> 2, (20, 9) --> 4, (20, 10) --> 4, (20, 11) --> 3, (20, 12) --> 4, (20, 13) --> 3,
                 (20, 14) --> 2, (20, 15) --> 4, (20, 16) --> 2, (20, 17) --> 3, (20, 18) --> 4, (20, 19) --> 3,
                 (20, 20) --> 3, (20, 21) --> 2, (20, 22) --> 4, (20, 23) --> 4, (20, 24) --> 3, (21, 1) --> 2,
                 (21, 2) --> 3, (21, 3) --> 2, (21, 4) --> 3, (21, 5) --> 2, (21, 6) --> 4, (21, 7) --> 2,
                 (21, 8) --> 4, (21, 9) --> 4, (21, 10) --> 3, (21, 11) --> 3, (21, 12) --> 3, (21, 13) --> 4,
                 (21, 14) --> 4, (21, 15) --> 2, (21, 16) --> 4, (21, 17) --> 3, (21, 18) --> 3, (21, 19) --> 3,
                 (21, 20) --> 4, (21, 21) --> 4, (21, 22) --> 4, (21, 23) --> 3, (21, 24) --> 2, (22, 1) --> 3,
                 (22, 2) --> 4, (22, 3) --> 3, (22, 4) --> 4, (22, 5) --> 3, (22, 6) --> 3, (22, 7) --> 2,
                 (22, 8) --> 3, (22, 9) --> 3, (22, 10) --> 4, (22, 11) --> 3, (22, 12) --> 3, (22, 13) --> 2,
                 (22, 14) --> 2, (22, 15) --> 4, (22, 16) --> 2, (22, 17) --> 2, (22, 18) --> 4, (22, 19) --> 3,
                 (22, 20) --> 4, (22, 21) --> 4, (22, 22) --> 3, (22, 23) --> 4, (22, 24) --> 3, (23, 1) --> 4,
                 (23, 2) --> 4, (23, 3) --> 2, (23, 4) --> 4, (23, 5) --> 3, (23, 6) --> 3, (23, 7) --> 3,
                 (23, 8) --> 2, (23, 9) --> 3, (23, 10) --> 2, (23, 11) --> 3, (23, 12) --> 4, (23, 13) --> 4,
                 (23, 14) --> 3, (23, 15) --> 3, (23, 16) --> 2, (23, 17) --> 3, (23, 18) --> 4, (23, 19) --> 3,
                 (23, 20) --> 4, (23, 21) --> 2, (23, 22) --> 3, (23, 23) --> 3, (23, 24) --> 3, (24, 1) --> 2,
                 (24, 2) --> 2, (24, 3) --> 2, (24, 4) --> 4, (24, 5) --> 3, (24, 6) --> 3, (24, 7) --> 4,
                 (24, 8) --> 3, (24, 9) --> 4, (24, 10) --> 2, (24, 11) --> 2, (24, 12) --> 4, (24, 13) --> 4,
                 (24, 14) --> 3, (24, 15) --> 2, (24, 16) --> 4, (24, 17) --> 4, (24, 18) --> 4, (24, 19) --> 2,
                 (24, 20) --> 4, (24, 21) --> 3, (24, 22) --> 2, (24, 23) --> 3, (24, 24) --> 3, (25, 1) --> 3,
                 (25, 2) --> 4, (25, 3) --> 3, (25, 4) --> 3, (25, 5) --> 3, (25, 6) --> 4, (25, 7) --> 2,
                 (25, 8) --> 3, (25, 9) --> 4, (25, 10) --> 4, (25, 11) --> 2, (25, 12) --> 4, (25, 13) --> 2,
                 (25, 14) --> 2, (25, 15) --> 4, (25, 16) --> 4, (25, 17) --> 4, (25, 18) --> 4, (25, 19) --> 4,
                 (25, 20) --> 3, (25, 21) --> 2, (25, 22) --> 4, (25, 23) --> 4, (25, 24) --> 3, (26, 1) --> 4,
                 (26, 2) --> 4, (26, 3) --> 3, (26, 4) --> 4, (26, 5) --> 2, (26, 6) --> 4, (26, 7) --> 3,
                 (26, 8) --> 3, (26, 9) --> 3, (26, 10) --> 2, (26, 11) --> 3, (26, 12) --> 2, (26, 13) --> 2,
                 (26, 14) --> 3, (26, 15) --> 3, (26, 16) --> 4, (26, 17) --> 2, (26, 18) --> 2, (26, 19) --> 3,
                 (26, 20) --> 2, (26, 21) --> 4, (26, 22) --> 4, (26, 23) --> 2, (26, 24) --> 4, (27, 1) --> 3,
                 (27, 2) --> 4, (27, 3) --> 3, (27, 4) --> 4, (27, 5) --> 3, (27, 6) --> 3, (27, 7) --> 2,
                 (27, 8) --> 4, (27, 9) --> 3, (27, 10) --> 2, (27, 11) --> 2, (27, 12) --> 3, (27, 13) --> 2,
                 (27, 14) --> 2, (27, 15) --> 2, (27, 16) --> 4, (27, 17) --> 3, (27, 18) --> 3, (27, 19) --> 4,
                 (27, 20) --> 2, (27, 21) --> 3, (27, 22) --> 4, (27, 23) --> 2, (27, 24) --> 4, (28, 1) --> 2,
                 (28, 2) --> 4, (28, 3) --> 3, (28, 4) --> 2, (28, 5) --> 2, (28, 6) --> 2, (28, 7) --> 4,
                 (28, 8) --> 3, (28, 9) --> 4, (28, 10) --> 2, (28, 11) --> 2, (28, 12) --> 4, (28, 13) --> 3,
                 (28, 14) --> 4, (28, 15) --> 3, (28, 16) --> 3, (28, 17) --> 3, (28, 18) --> 4, (28, 19) --> 3,
                 (28, 20) --> 3, (28, 21) --> 4, (28, 22) --> 2, (28, 23) --> 2, (28, 24) --> 3, (29, 1) --> 4,
                 (29, 2) --> 2, (29, 3) --> 2, (29, 4) --> 2, (29, 5) --> 2, (29, 6) --> 4, (29, 7) --> 3,
                 (29, 8) --> 3, (29, 9) --> 2, (29, 10) --> 4, (29, 11) --> 2, (29, 12) --> 2, (29, 13) --> 2,
                 (29, 14) --> 2, (29, 15) --> 4, (29, 16) --> 4, (29, 17) --> 3, (29, 18) --> 4, (29, 19) --> 2,
                 (29, 20) --> 2, (29, 21) --> 4, (29, 22) --> 3, (29, 23) --> 3, (29, 24) --> 4, (30, 1) --> 4,
                 (30, 2) --> 2, (30, 3) --> 3, (30, 4) --> 4, (30, 5) --> 4, (30, 6) --> 4, (30, 7) --> 3,
                 (30, 8) --> 2, (30, 9) --> 4, (30, 10) --> 2, (30, 11) --> 2, (30, 12) --> 4, (30, 13) --> 3,
                 (30, 14) --> 2, (30, 15) --> 4, (30, 16) --> 4, (30, 17) --> 2, (30, 18) --> 4, (30, 19) --> 4,
                 (30, 20) --> 3, (30, 21) --> 2, (30, 22) --> 3, (30, 23) --> 3, (30, 24) --> 3, (31, 1) --> 4,
                 (31, 2) --> 4, (31, 3) --> 3, (31, 4) --> 3, (31, 5) --> 3, (31, 6) --> 3, (31, 7) --> 2,
                 (31, 8) --> 2, (31, 9) --> 2, (31, 10) --> 4, (31, 11) --> 4, (31, 12) --> 3, (31, 13) --> 2,
                 (31, 14) --> 4, (31, 15) --> 3, (31, 16) --> 4, (31, 17) --> 4, (31, 18) --> 3, (31, 19) --> 3,
                 (31, 20) --> 3, (31, 21) --> 4, (31, 22) --> 3, (31, 23) --> 4, (31, 24) --> 3, (32, 1) --> 4,
                 (32, 2) --> 3, (32, 3) --> 4, (32, 4) --> 2, (32, 5) --> 3, (32, 6) --> 3, (32, 7) --> 3,
                 (32, 8) --> 3, (32, 9) --> 3, (32, 10) --> 4, (32, 11) --> 3, (32, 12) --> 3, (32, 13) --> 2,
                 (32, 14) --> 4, (32, 15) --> 4, (32, 16) --> 2, (32, 17) --> 2, (32, 18) --> 2, (32, 19) --> 2,
                 (32, 20) --> 4, (32, 21) --> 3, (32, 22) --> 4, (32, 23) --> 2, (32, 24) --> 2, (33, 1) --> 4,
                 (33, 2) --> 4, (33, 3) --> 4, (33, 4) --> 4, (33, 5) --> 4, (33, 6) --> 3, (33, 7) --> 3,
                 (33, 8) --> 3, (33, 9) --> 4, (33, 10) --> 2, (33, 11) --> 3, (33, 12) --> 2, (33, 13) --> 3,
                 (33, 14) --> 3, (33, 15) --> 4, (33, 16) --> 4, (33, 17) --> 2, (33, 18) --> 4, (33, 19) --> 3,
                 (33, 20) --> 3, (33, 21) --> 3, (33, 22) --> 2, (33, 23) --> 3, (33, 24) --> 3, (34, 1) --> 3,
                 (34, 2) --> 4, (34, 3) --> 4, (34, 4) --> 4, (34, 5) --> 4, (34, 6) --> 4, (34, 7) --> 3,
                 (34, 8) --> 4, (34, 9) --> 4, (34, 10) --> 4, (34, 11) --> 4, (34, 12) --> 4, (34, 13) --> 2,
                 (34, 14) --> 3, (34, 15) --> 2, (34, 16) --> 3, (34, 17) --> 3, (34, 18) --> 3, (34, 19) --> 4,
                 (34, 20) --> 3, (34, 21) --> 2, (34, 22) --> 4, (34, 23) --> 4, (34, 24) --> 3, (35, 1) --> 4,
                 (35, 2) --> 2, (35, 3) --> 3, (35, 4) --> 3, (35, 5) --> 4, (35, 6) --> 2, (35, 7) --> 3,
                 (35, 8) --> 2, (35, 9) --> 2, (35, 10) --> 3, (35, 11) --> 3, (35, 12) --> 3, (35, 13) --> 3,
                 (35, 14) --> 3, (35, 15) --> 3, (35, 16) --> 4, (35, 17) --> 2, (35, 18) --> 3, (35, 19) --> 4,
                 (35, 20) --> 3, (35, 21) --> 2, (35, 22) --> 2, (35, 23) --> 2, (35, 24) --> 2, (36, 1) --> 3,
                 (36, 2) --> 3, (36, 3) --> 4, (36, 4) --> 3, (36, 5) --> 4, (36, 6) --> 2, (36, 7) --> 2,
                 (36, 8) --> 2, (36, 9) --> 4, (36, 10) --> 3, (36, 11) --> 3, (36, 12) --> 3, (36, 13) --> 3,
                 (36, 14) --> 4, (36, 15) --> 4, (36, 16) --> 2, (36, 17) --> 4, (36, 18) --> 4, (36, 19) --> 3,
                 (36, 20) --> 3, (36, 21) --> 4, (36, 22) --> 3, (36, 23) --> 2, (36, 24) --> 2, (37, 1) --> 2,
                 (37, 2) --> 3, (37, 3) --> 3, (37, 4) --> 3, (37, 5) --> 4, (37, 6) --> 2, (37, 7) --> 2,
                 (37, 8) --> 4, (37, 9) --> 3, (37, 10) --> 2, (37, 11) --> 4, (37, 12) --> 2, (37, 13) --> 2,
                 (37, 14) --> 4, (37, 15) --> 2, (37, 16) --> 3, (37, 17) --> 3, (37, 18) --> 2, (37, 19) --> 3,
                 (37, 20) --> 4, (37, 21) --> 4, (37, 22) --> 3, (37, 23) --> 3, (37, 24) --> 3, (38, 1) --> 3,
                 (38, 2) --> 2, (38, 3) --> 2, (38, 4) --> 3, (38, 5) --> 4, (38, 6) --> 2, (38, 7) --> 2,
                 (38, 8) --> 2, (38, 9) --> 3, (38, 10) --> 2, (38, 11) --> 2, (38, 12) --> 3, (38, 13) --> 2,
                 (38, 14) --> 4, (38, 15) --> 3, (38, 16) --> 4, (38, 17) --> 4, (38, 18) --> 4, (38, 19) --> 2,
                 (38, 20) --> 2, (38, 21) --> 2, (38, 22) --> 4, (38, 23) --> 4, (38, 24) --> 4, (39, 1) --> 4,
                 (39, 2) --> 4, (39, 3) --> 3, (39, 4) --> 3, (39, 5) --> 2, (39, 6) --> 4, (39, 7) --> 2,
                 (39, 8) --> 4, (39, 9) --> 4, (39, 10) --> 4, (39, 11) --> 2, (39, 12) --> 2, (39, 13) --> 3,
                 (39, 14) --> 2, (39, 15) --> 4, (39, 16) --> 3, (39, 17) --> 4, (39, 18) --> 3, (39, 19) --> 3,
                 (39, 20) --> 3, (39, 21) --> 4, (39, 22) --> 2, (39, 23) --> 3, (39, 24) --> 4, (40, 1) --> 2,
                 (40, 2) --> 4, (40, 3) --> 4, (40, 4) --> 2, (40, 5) --> 4, (40, 6) --> 3, (40, 7) --> 4,
                 (40, 8) --> 2, (40, 9) --> 3, (40, 10) --> 4, (40, 11) --> 4, (40, 12) --> 3, (40, 13) --> 4,
                 (40, 14) --> 2, (40, 15) --> 4, (40, 16) --> 4, (40, 17) --> 3, (40, 18) --> 3, (40, 19) --> 2,
                 (40, 20) --> 4, (40, 21) --> 2, (40, 22) --> 2, (40, 23) --> 4, (40, 24) --> 4, (41, 1) --> 3,
                 (41, 2) --> 4, (41, 3) --> 3, (41, 4) --> 4, (41, 5) --> 4, (41, 6) --> 2, (41, 7) --> 3,
                 (41, 8) --> 3, (41, 9) --> 4, (41, 10) --> 3, (41, 11) --> 4, (41, 12) --> 3, (41, 13) --> 2,
                 (41, 14) --> 3, (41, 15) --> 4, (41, 16) --> 4, (41, 17) --> 4, (41, 18) --> 4, (41, 19) --> 4,
                 (41, 20) --> 3, (41, 21) --> 2, (41, 22) --> 4, (41, 23) --> 3, (41, 24) --> 3, (42, 1) --> 4,
                 (42, 2) --> 2, (42, 3) --> 2, (42, 4) --> 4, (42, 5) --> 2, (42, 6) --> 3, (42, 7) --> 2,
                 (42, 8) --> 2, (42, 9) --> 2, (42, 10) --> 3, (42, 11) --> 2, (42, 12) --> 3, (42, 13) --> 4,
                 (42, 14) --> 2, (42, 15) --> 4, (42, 16) --> 3, (42, 17) --> 3, (42, 18) --> 3, (42, 19) --> 4,
                 (42, 20) --> 2, (42, 21) --> 2, (42, 22) --> 3, (42, 23) --> 3, (42, 24) --> 2, (43, 1) --> 4,
                 (43, 2) --> 4, (43, 3) --> 4, (43, 4) --> 4, (43, 5) --> 3, (43, 6) --> 2, (43, 7) --> 3,
                 (43, 8) --> 4, (43, 9) --> 3, (43, 10) --> 4, (43, 11) --> 3, (43, 12) --> 2, (43, 13) --> 2,
                 (43, 14) --> 2, (43, 15) --> 4, (43, 16) --> 3, (43, 17) --> 4, (43, 18) --> 2, (43, 19) --> 3,
                 (43, 20) --> 2, (43, 21) --> 4, (43, 22) --> 2, (43, 23) --> 3, (43, 24) --> 2)
letting demand be function(1 --> 34, 2 --> 36, 3 --> 30, 4 --> 39)
letting maxCost be 18
letting n_customer be 4
letting n_transshipment be 24
letting n_warehouses be 43
letting stock be
        function(1 --> 33, 2 --> 29, 3 --> 24, 4 --> 35, 5 --> 33, 6 --> 33, 7 --> 29, 8 --> 34, 9 --> 27, 10 --> 25,
                 11 --> 31, 12 --> 32, 13 --> 33, 14 --> 24, 15 --> 23, 16 --> 28, 17 --> 34, 18 --> 26, 19 --> 26,
                 20 --> 29, 21 --> 34, 22 --> 27, 23 --> 31, 24 --> 32, 25 --> 34, 26 --> 32, 27 --> 23, 28 --> 30,
                 29 --> 31, 30 --> 24, 31 --> 23, 32 --> 24, 33 --> 28, 34 --> 32, 35 --> 34, 36 --> 34, 37 --> 32,
                 38 --> 34, 39 --> 35, 40 --> 29, 41 --> 28, 42 --> 34, 43 --> 26)
